% File represents an instance of a Composite Structure problem to be solved by a CP framework
% Created on 2025-03-26 10:41:29.894
T = 50;
n = 25;
m = 40;
edges = [(2, 1),
(7, 6),
(12, 11),
(17, 16),
(22, 21),
(2, 3),
(7, 8),
(12, 13),
(17, 18),
(23, 22),
(3, 4),
(8, 9),
(14, 13),
(19, 18),
(23, 24),
(4, 5),
(10, 9),
(14, 15),
(19, 20),
(25, 24),
(1, 6),
(6, 11),
(11, 16),
(16, 21),
(2, 7),
(7, 12),
(12, 17),
(17, 22),
(3, 8),
(8, 13),
(13, 18),
(23, 18),
(4, 9),
(14, 9),
(14, 19),
(19, 24),
(5, 10),
(10, 15),
(15, 20),
(25, 20)];
counts = [|6, 16, 6, 16,
|6, 20, 6, 18,
|4, 20, 4, 16,
|4, 20, 4, 14,
|4, 18, 4, 14,
|6, 14, 6, 14,
|6, 20, 6, 14,
|4, 20, 4, 12,
|4, 16, 4, 12,
|4, 18, 4, 12,
|6, 12, 6, 12,
|6, 16, 6, 12,
|4, 16, 4, 12,
|4, 16, 4, 14,
|4, 16, 4, 12,
|6, 6, 6, 12,
|6, 10, 6, 12,
|4, 10, 4, 12,
|4, 14, 4, 14,
|4, 10, 4, 12,
|6, 6, 6, 10,
|6, 8, 6, 12,
|6, 10, 6, 12,
|4, 10, 4, 12,
|4, 12, 4, 12|];
